p td 40 60
0 35
0 28
0 26
35 22
35 30
17 38
17 3
17 22
38 21
38 12
10 11
10 1
10 14
11 14
11 15
25 36
25 9
25 30
36 9
36 7
18 37
18 19
18 8
37 2
37 6
19 4
19 39
23 26
23 21
23 6
26 33
2 5
2 31
14 28
1 29
1 32
29 8
29 22
5 24
5 16
3 16
3 12
9 30
28 27
7 20
7 15
20 13
20 4
15 39
4 24
8 32
32 24
13 16
13 6
39 27
21 33
27 34
12 34
34 31
33 31
